NAME : gr96.tour
COMMENT : Optimum tour for gr96.tsp (Length 55209)
TYPE : TOUR
DIMENSION : 96
TOUR_SECTION  
26
22
23
24
25
21
19
18
20
17
16
15
14
13
12
10
9
8
7
6
5
4
3
2
29
1
30
31
32
36
37
38
35
34
33
11
45
44
39
40
41
42
43
49
51
55
53
52
50
46
47
48
54
58
56
57
69
70
79
80
81
82
83
91
90
89
87
88
78
85
86
84
74
75
73
72
71
59
60
61
62
63
64
66
67
68
76
77
92
93
95
94
96
65
27
28
-1
EOF
